NAME : single
TYPE : ATSP
DIMENSION : 10
EDGE_WEIGHT_TYPE : EXPLICIT
EDGE_WEIGHT_FORMAT : FULL_MATRIX
EDGE_WEIGHT_SECTION
0 313 213 601 295 515 338 347 485 302 
0 0 174 356 194 392 241 168 219 119 
0 174 0 419 202 438 246 155 287 114 
0 356 419 0 319 364 325 268 141 316 
0 194 202 319 0 200 66 244 264 209 
0 392 438 364 200 0 153 357 361 404 
0 241 246 325 66 153 0 301 265 240 
0 168 155 268 244 357 301 0 131 58 
0 219 287 141 264 361 265 131 0 182 
0 119 114 316 209 404 240 58 182 0 
EOF